c Arquivo convertido de young3c.mtx
p edge 841 1671
e 1 2
e 1 30
e 2 3
e 2 31
e 3 4
e 3 32
e 4 5
e 4 33
e 5 6
e 5 34
e 6 7
e 6 35
e 7 8
e 7 36
e 8 9
e 8 37
e 9 10
e 9 38
e 10 11
e 10 39
e 11 12
e 11 40
e 12 13
e 12 41
e 13 14
e 13 42
e 14 15
e 14 43
e 15 16
e 15 44
e 16 17
e 16 45
e 17 18
e 17 46
e 18 19
e 18 47
e 19 20
e 19 48
e 20 21
e 20 49
e 21 22
e 21 50
e 22 23
e 22 51
e 23 24
e 23 52
e 24 25
e 24 53
e 25 26
e 25 54
e 26 27
e 26 55
e 27 28
e 27 56
e 28 29
e 28 57
e 29 58
e 30 31
e 30 59
e 31 32
e 31 60
e 32 33
e 32 61
e 33 34
e 33 62
e 34 35
e 34 63
e 35 36
e 35 64
e 36 37
e 36 65
e 37 38
e 37 66
e 38 39
e 38 67
e 39 40
e 39 68
e 40 41
e 40 69
e 41 42
e 41 70
e 42 43
e 42 71
e 43 44
e 43 72
e 44 45
e 44 73
e 45 46
e 45 74
e 46 47
e 46 75
e 47 48
e 47 76
e 48 49
e 48 77
e 49 50
e 49 78
e 50 51
e 50 79
e 51 52
e 51 80
e 52 53
e 52 81
e 53 54
e 53 82
e 54 55
e 54 83
e 55 56
e 55 84
e 56 57
e 56 85
e 57 58
e 57 86
e 58 87
e 59 60
e 59 88
e 60 61
e 60 89
e 61 62
e 61 90
e 62 63
e 62 91
e 63 64
e 63 92
e 64 65
e 64 93
e 65 66
e 65 94
e 66 67
e 66 95
e 67 68
e 67 96
e 68 69
e 68 97
e 69 70
e 69 98
e 70 71
e 70 99
e 71 72
e 71 100
e 72 73
e 72 101
e 73 74
e 73 102
e 74 75
e 74 103
e 75 76
e 75 104
e 76 77
e 76 105
e 77 78
e 77 106
e 78 79
e 78 107
e 79 80
e 79 108
e 80 81
e 80 109
e 81 82
e 81 110
e 82 83
e 82 111
e 83 84
e 83 112
e 84 85
e 84 113
e 85 86
e 85 114
e 86 87
e 86 115
e 87 116
e 88 89
e 88 117
e 89 90
e 89 118
e 90 91
e 90 119
e 91 92
e 91 120
e 92 93
e 92 121
e 93 94
e 93 122
e 94 95
e 94 123
e 95 96
e 95 124
e 96 97
e 96 125
e 97 98
e 97 126
e 98 99
e 98 127
e 99 100
e 99 128
e 100 101
e 100 129
e 101 102
e 101 130
e 102 103
e 102 131
e 103 104
e 103 132
e 104 105
e 104 133
e 105 106
e 105 134
e 106 107
e 106 135
e 107 108
e 107 136
e 108 109
e 108 137
e 109 110
e 109 138
e 110 111
e 110 139
e 111 112
e 111 140
e 112 113
e 112 141
e 113 114
e 113 142
e 114 115
e 114 143
e 115 116
e 115 144
e 116 145
e 117 118
e 117 146
e 118 119
e 118 147
e 119 120
e 119 148
e 120 121
e 120 149
e 121 122
e 121 150
e 122 123
e 122 151
e 123 124
e 123 152
e 124 125
e 124 153
e 125 126
e 125 154
e 126 127
e 126 154
e 126 155
e 127 128
e 127 156
e 128 129
e 128 157
e 129 130
e 129 158
e 130 131
e 130 159
e 131 132
e 131 160
e 131 161
e 132 133
e 132 161
e 133 134
e 133 161
e 133 162
e 134 135
e 134 163
e 135 136
e 135 164
e 136 137
e 136 165
e 136 166
e 137 138
e 137 166
e 138 139
e 138 167
e 139 140
e 139 168
e 140 141
e 140 169
e 141 142
e 141 170
e 142 143
e 142 171
e 143 144
e 143 172
e 144 145
e 144 173
e 145 174
e 146 147
e 146 175
e 147 148
e 147 176
e 148 149
e 148 177
e 149 150
e 149 178
e 150 151
e 150 179
e 151 152
e 151 180
e 152 153
e 152 181
e 153 154
e 153 182
e 154 155
e 154 182
e 154 183
e 155 156
e 155 184
e 156 157
e 156 185
e 157 158
e 157 186
e 158 159
e 158 187
e 159 160
e 159 188
e 160 161
e 160 189
e 161 162
e 161 190
e 161 191
e 162 163
e 162 191
e 163 164
e 163 192
e 164 165
e 164 193
e 165 166
e 165 194
e 166 167
e 166 195
e 166 196
e 167 168
e 167 196
e 168 169
e 168 197
e 169 170
e 169 198
e 170 171
e 170 199
e 171 172
e 171 200
e 172 173
e 172 201
e 173 174
e 173 202
e 174 203
e 175 176
e 175 204
e 176 177
e 176 205
e 177 178
e 177 206
e 178 179
e 178 207
e 179 180
e 179 208
e 180 181
e 180 209
e 181 182
e 181 210
e 182 183
e 182 210
e 182 211
e 183 184
e 183 212
e 184 185
e 184 213
e 185 186
e 185 214
e 186 187
e 186 214
e 186 215
e 187 188
e 187 216
e 188 189
e 188 217
e 189 190
e 189 218
e 190 191
e 190 219
e 191 192
e 191 220
e 192 193
e 192 221
e 192 222
e 193 194
e 193 222
e 194 195
e 194 223
e 195 196
e 195 224
e 196 197
e 196 225
e 196 226
e 197 198
e 197 226
e 198 199
e 198 227
e 199 200
e 199 228
e 200 201
e 200 229
e 201 202
e 201 230
e 202 203
e 202 231
e 203 232
e 204 205
e 204 233
e 205 206
e 205 234
e 206 207
e 206 235
e 207 208
e 207 236
e 208 209
e 208 237
e 209 210
e 209 238
e 210 211
e 210 238
e 210 239
e 211 212
e 211 240
e 212 213
e 212 241
e 213 214
e 213 241
e 213 242
e 214 215
e 214 243
e 215 216
e 215 244
e 216 217
e 216 245
e 217 218
e 217 246
e 218 219
e 218 247
e 219 220
e 219 248
e 220 221
e 220 249
e 221 222
e 221 250
e 222 223
e 222 251
e 223 224
e 223 252
e 223 253
e 224 225
e 224 253
e 225 226
e 225 254
e 226 227
e 226 255
e 226 256
e 227 228
e 227 256
e 228 229
e 228 257
e 229 230
e 229 258
e 230 231
e 230 259
e 231 232
e 231 260
e 232 261
e 233 234
e 233 262
e 234 235
e 234 263
e 235 236
e 235 264
e 236 237
e 236 265
e 237 238
e 237 266
e 238 239
e 238 266
e 238 267
e 239 240
e 239 268
e 240 241
e 240 269
e 241 242
e 241 269
e 241 270
e 242 243
e 242 271
e 243 244
e 243 272
e 244 245
e 244 273
e 245 246
e 245 274
e 246 247
e 246 275
e 247 248
e 247 276
e 248 249
e 248 277
e 249 250
e 249 278
e 250 251
e 250 279
e 251 252
e 251 280
e 252 253
e 252 281
e 253 254
e 253 282
e 253 283
e 254 255
e 254 283
e 255 256
e 255 284
e 256 257
e 256 285
e 256 286
e 257 258
e 257 286
e 258 259
e 258 287
e 259 260
e 259 288
e 260 261
e 260 289
e 261 290
e 262 263
e 262 291
e 263 264
e 263 292
e 264 265
e 264 293
e 265 266
e 265 294
e 266 267
e 266 295
e 267 268
e 267 296
e 268 269
e 268 297
e 269 270
e 269 298
e 270 271
e 270 299
e 271 272
e 271 300
e 272 273
e 272 301
e 273 274
e 273 302
e 274 275
e 274 303
e 275 276
e 275 304
e 276 277
e 276 305
e 277 278
e 277 306
e 278 279
e 278 307
e 279 280
e 279 308
e 280 281
e 280 309
e 281 282
e 281 310
e 282 283
e 282 311
e 283 284
e 283 312
e 284 285
e 284 313
e 285 286
e 285 314
e 286 287
e 286 315
e 287 288
e 287 316
e 288 289
e 288 317
e 289 290
e 289 318
e 290 319
e 291 292
e 291 320
e 292 293
e 292 321
e 293 294
e 293 322
e 294 295
e 294 323
e 295 296
e 295 323
e 295 324
e 296 297
e 296 325
e 297 298
e 297 326
e 298 299
e 298 326
e 298 327
e 299 300
e 299 328
e 300 301
e 300 329
e 301 302
e 301 330
e 302 303
e 302 331
e 303 304
e 303 332
e 304 305
e 304 333
e 305 306
e 305 334
e 306 307
e 306 335
e 307 308
e 307 336
e 308 309
e 308 337
e 309 310
e 309 338
e 310 311
e 310 339
e 311 312
e 311 340
e 312 313
e 312 341
e 313 314
e 313 342
e 314 315
e 314 343
e 315 316
e 315 344
e 316 317
e 316 345
e 317 318
e 317 346
e 318 319
e 318 347
e 319 348
e 320 321
e 320 349
e 321 322
e 321 350
e 322 323
e 322 351
e 323 324
e 323 352
e 324 325
e 324 352
e 324 353
e 325 326
e 325 354
e 326 327
e 326 355
e 327 328
e 327 356
e 328 329
e 328 357
e 329 330
e 329 358
e 330 331
e 330 359
e 331 332
e 331 360
e 332 333
e 332 361
e 333 334
e 333 362
e 334 335
e 334 363
e 335 336
e 335 364
e 336 337
e 336 365
e 337 338
e 337 366
e 338 339
e 338 367
e 339 340
e 339 368
e 340 341
e 340 369
e 341 342
e 341 370
e 342 343
e 342 371
e 343 344
e 343 372
e 344 345
e 344 373
e 344 374
e 345 346
e 345 374
e 346 347
e 346 375
e 347 348
e 347 376
e 348 377
e 349 350
e 349 378
e 350 351
e 350 379
e 351 352
e 351 380
e 352 353
e 352 381
e 353 354
e 353 382
e 354 355
e 354 383
e 355 356
e 355 384
e 356 357
e 356 385
e 357 358
e 357 386
e 358 359
e 358 387
e 359 360
e 359 388
e 360 361
e 360 389
e 361 362
e 361 390
e 362 363
e 362 391
e 363 364
e 363 392
e 364 365
e 364 393
e 365 366
e 365 394
e 366 367
e 366 395
e 367 368
e 367 396
e 368 369
e 368 397
e 369 370
e 369 398
e 370 371
e 370 399
e 371 372
e 371 400
e 372 373
e 372 401
e 373 374
e 373 402
e 374 375
e 374 403
e 375 376
e 375 404
e 376 377
e 376 405
e 377 406
e 378 379
e 378 407
e 379 380
e 379 408
e 380 381
e 380 409
e 381 382
e 381 410
e 382 383
e 382 411
e 383 384
e 383 412
e 384 385
e 384 413
e 385 386
e 385 414
e 386 387
e 386 415
e 387 388
e 387 416
e 388 389
e 388 417
e 389 390
e 389 418
e 390 391
e 390 419
e 391 392
e 391 420
e 392 393
e 392 421
e 393 394
e 393 422
e 394 395
e 394 423
e 395 396
e 395 424
e 396 397
e 396 425
e 397 398
e 397 426
e 398 399
e 398 427
e 399 400
e 399 428
e 400 401
e 400 429
e 401 402
e 401 430
e 402 403
e 402 431
e 403 404
e 403 432
e 404 405
e 404 433
e 405 406
e 405 434
e 406 435
e 407 408
e 407 436
e 408 409
e 408 437
e 409 410
e 409 438
e 410 411
e 410 439
e 411 412
e 411 440
e 412 413
e 412 441
e 413 414
e 413 442
e 414 415
e 414 443
e 415 416
e 415 444
e 416 417
e 416 445
e 417 418
e 417 446
e 418 419
e 418 447
e 419 420
e 419 448
e 420 421
e 420 449
e 421 422
e 421 450
e 422 423
e 422 451
e 423 424
e 423 452
e 424 425
e 424 453
e 425 426
e 425 454
e 426 427
e 426 455
e 427 428
e 427 456
e 428 429
e 428 457
e 429 430
e 429 458
e 430 431
e 430 459
e 431 432
e 431 460
e 432 433
e 432 461
e 433 434
e 433 462
e 434 435
e 434 463
e 435 464
e 436 437
e 436 465
e 437 438
e 437 466
e 438 439
e 438 467
e 439 440
e 439 468
e 440 441
e 440 469
e 441 442
e 441 470
e 442 443
e 442 471
e 443 444
e 443 472
e 444 445
e 444 473
e 445 446
e 445 474
e 446 447
e 446 475
e 447 448
e 447 476
e 448 449
e 448 477
e 449 450
e 449 478
e 450 451
e 450 479
e 451 452
e 451 480
e 452 453
e 452 481
e 453 454
e 453 482
e 454 455
e 454 483
e 455 456
e 455 484
e 456 457
e 456 485
e 457 458
e 457 486
e 458 459
e 458 487
e 459 460
e 459 488
e 460 461
e 460 489
e 461 462
e 461 490
e 462 463
e 462 491
e 463 464
e 463 492
e 464 493
e 465 466
e 465 494
e 466 467
e 466 495
e 467 468
e 467 496
e 468 469
e 468 497
e 468 498
e 469 470
e 469 498
e 470 471
e 470 499
e 471 472
e 471 500
e 472 473
e 472 501
e 473 474
e 473 502
e 474 475
e 474 503
e 475 476
e 475 504
e 476 477
e 476 505
e 477 478
e 477 506
e 478 479
e 478 507
e 479 480
e 479 508
e 480 481
e 480 509
e 481 482
e 481 510
e 482 483
e 482 511
e 483 484
e 483 512
e 484 485
e 484 513
e 485 486
e 485 514
e 486 487
e 486 515
e 487 488
e 487 516
e 488 489
e 488 517
e 489 490
e 489 518
e 490 491
e 490 518
e 490 519
e 491 492
e 491 520
e 492 493
e 492 521
e 493 522
e 494 495
e 494 523
e 495 496
e 495 524
e 496 497
e 496 525
e 497 498
e 497 526
e 497 527
e 498 499
e 498 527
e 499 500
e 499 528
e 500 501
e 500 529
e 500 530
e 501 502
e 501 530
e 502 503
e 502 531
e 503 504
e 503 532
e 504 505
e 504 533
e 505 506
e 505 534
e 506 507
e 506 535
e 507 508
e 507 536
e 508 509
e 508 537
e 509 510
e 509 538
e 510 511
e 510 539
e 511 512
e 511 540
e 512 513
e 512 541
e 513 514
e 513 542
e 514 515
e 514 543
e 515 516
e 515 544
e 516 517
e 516 545
e 517 518
e 517 546
e 518 519
e 518 547
e 519 520
e 519 548
e 520 521
e 520 549
e 521 522
e 521 550
e 522 551
e 523 524
e 523 552
e 524 525
e 524 553
e 525 526
e 525 554
e 526 527
e 526 555
e 527 528
e 527 556
e 528 529
e 528 557
e 529 530
e 529 558
e 530 531
e 530 559
e 531 532
e 531 560
e 532 533
e 532 561
e 533 534
e 533 562
e 534 535
e 534 563
e 535 536
e 535 564
e 536 537
e 536 565
e 537 538
e 537 566
e 538 539
e 538 567
e 539 540
e 539 568
e 540 541
e 540 569
e 541 542
e 541 570
e 542 543
e 542 571
e 543 544
e 543 572
e 544 545
e 544 573
e 545 546
e 545 574
e 546 547
e 546 575
e 547 548
e 547 576
e 548 549
e 548 577
e 549 550
e 549 578
e 550 551
e 550 579
e 551 580
e 552 553
e 552 581
e 553 554
e 553 582
e 554 555
e 554 583
e 555 556
e 555 584
e 556 557
e 556 585
e 556 586
e 557 558
e 557 586
e 558 559
e 558 587
e 559 560
e 559 588
e 559 589
e 560 561
e 560 589
e 561 562
e 561 590
e 562 563
e 562 591
e 563 564
e 563 592
e 564 565
e 564 593
e 565 566
e 565 594
e 566 567
e 566 595
e 567 568
e 567 596
e 568 569
e 568 597
e 569 570
e 569 598
e 570 571
e 570 599
e 571 572
e 571 600
e 572 573
e 572 601
e 573 574
e 573 601
e 573 602
e 574 575
e 574 603
e 575 576
e 575 604
e 576 577
e 576 604
e 576 605
e 577 578
e 577 606
e 578 579
e 578 607
e 579 580
e 579 608
e 580 609
e 581 582
e 581 610
e 582 583
e 582 611
e 583 584
e 583 612
e 584 585
e 584 613
e 585 586
e 585 614
e 586 587
e 586 615
e 586 616
e 587 588
e 587 616
e 588 589
e 588 617
e 589 590
e 589 618
e 589 619
e 590 591
e 590 619
e 591 592
e 591 620
e 592 593
e 592 621
e 593 594
e 593 622
e 594 595
e 594 623
e 595 596
e 595 624
e 596 597
e 596 625
e 597 598
e 597 626
e 598 599
e 598 627
e 599 600
e 599 628
e 600 601
e 600 629
e 601 602
e 601 629
e 601 630
e 602 603
e 602 631
e 603 604
e 603 632
e 604 605
e 604 632
e 604 633
e 605 606
e 605 634
e 606 607
e 606 635
e 607 608
e 607 636
e 608 609
e 608 637
e 609 638
e 610 611
e 610 639
e 611 612
e 611 640
e 612 613
e 612 641
e 613 614
e 613 642
e 614 615
e 614 643
e 615 616
e 615 644
e 616 617
e 616 645
e 616 646
e 617 618
e 617 646
e 618 619
e 618 647
e 619 620
e 619 648
e 620 621
e 620 649
e 620 650
e 621 622
e 621 650
e 622 623
e 622 651
e 623 624
e 623 652
e 624 625
e 624 653
e 625 626
e 625 654
e 626 627
e 626 655
e 627 628
e 627 656
e 628 629
e 628 656
e 628 657
e 629 630
e 629 658
e 630 631
e 630 659
e 631 632
e 631 660
e 632 633
e 632 660
e 632 661
e 633 634
e 633 662
e 634 635
e 634 663
e 635 636
e 635 664
e 636 637
e 636 665
e 637 638
e 637 666
e 638 667
e 639 640
e 639 668
e 640 641
e 640 669
e 641 642
e 641 670
e 642 643
e 642 671
e 643 644
e 643 672
e 644 645
e 644 673
e 645 646
e 645 674
e 646 647
e 646 675
e 646 676
e 647 648
e 647 676
e 648 649
e 648 677
e 649 650
e 649 678
e 650 651
e 650 679
e 651 652
e 651 680
e 652 653
e 652 681
e 653 654
e 653 682
e 654 655
e 654 683
e 655 656
e 655 684
e 656 657
e 656 685
e 657 658
e 657 686
e 658 659
e 658 687
e 659 660
e 659 688
e 660 661
e 660 688
e 660 689
e 661 662
e 661 690
e 662 663
e 662 691
e 663 664
e 663 692
e 664 665
e 664 693
e 665 666
e 665 694
e 666 667
e 666 695
e 667 696
e 668 669
e 668 697
e 669 670
e 669 698
e 670 671
e 670 699
e 671 672
e 671 700
e 672 673
e 672 701
e 673 674
e 673 702
e 674 675
e 674 703
e 675 676
e 675 704
e 676 677
e 676 705
e 676 706
e 677 678
e 677 706
e 678 679
e 678 707
e 679 680
e 679 708
e 680 681
e 680 709
e 681 682
e 681 710
e 682 683
e 682 711
e 683 684
e 683 712
e 684 685
e 684 713
e 685 686
e 685 714
e 686 687
e 686 715
e 687 688
e 687 716
e 688 689
e 688 716
e 688 717
e 689 690
e 689 718
e 690 691
e 690 719
e 691 692
e 691 720
e 692 693
e 692 721
e 693 694
e 693 722
e 694 695
e 694 723
e 695 696
e 695 724
e 696 725
e 697 698
e 697 726
e 698 699
e 698 727
e 699 700
e 699 728
e 700 701
e 700 729
e 701 702
e 701 730
e 702 703
e 702 731
e 703 704
e 703 732
e 704 705
e 704 733
e 705 706
e 705 734
e 706 707
e 706 735
e 707 708
e 707 736
e 707 737
e 708 709
e 708 737
e 708 738
e 709 710
e 709 738
e 710 711
e 710 739
e 711 712
e 711 740
e 712 713
e 712 741
e 713 714
e 713 742
e 714 715
e 714 742
e 714 743
e 715 716
e 715 743
e 715 744
e 716 717
e 716 745
e 717 718
e 717 746
e 718 719
e 718 747
e 719 720
e 719 748
e 720 721
e 720 749
e 721 722
e 721 750
e 722 723
e 722 751
e 723 724
e 723 752
e 724 725
e 724 753
e 725 754
e 726 727
e 726 755
e 727 728
e 727 756
e 728 729
e 728 757
e 729 730
e 729 758
e 730 731
e 730 759
e 731 732
e 731 760
e 732 733
e 732 761
e 733 734
e 733 762
e 734 735
e 734 763
e 735 736
e 735 764
e 736 737
e 736 765
e 737 738
e 737 766
e 738 739
e 738 767
e 739 740
e 739 768
e 740 741
e 740 769
e 741 742
e 741 770
e 742 743
e 742 771
e 743 744
e 743 772
e 744 745
e 744 773
e 745 746
e 745 774
e 746 747
e 746 775
e 747 748
e 747 776
e 748 749
e 748 777
e 749 750
e 749 778
e 750 751
e 750 779
e 751 752
e 751 780
e 752 753
e 752 781
e 753 754
e 753 782
e 754 783
e 755 756
e 755 784
e 756 757
e 756 785
e 757 758
e 757 786
e 758 759
e 758 787
e 759 760
e 759 788
e 760 761
e 760 789
e 761 762
e 761 790
e 762 763
e 762 791
e 763 764
e 763 792
e 764 765
e 764 793
e 765 766
e 765 794
e 766 767
e 766 795
e 767 768
e 767 796
e 768 769
e 768 797
e 769 770
e 769 798
e 770 771
e 770 799
e 771 772
e 771 800
e 772 773
e 772 801
e 773 774
e 773 802
e 774 775
e 774 803
e 775 776
e 775 804
e 776 777
e 776 805
e 777 778
e 777 806
e 778 779
e 778 807
e 779 780
e 779 808
e 780 781
e 780 809
e 781 782
e 781 810
e 782 783
e 782 811
e 783 812
e 784 785
e 784 813
e 785 786
e 785 814
e 786 787
e 786 815
e 787 788
e 787 816
e 788 789
e 788 817
e 789 790
e 789 818
e 790 791
e 790 819
e 791 792
e 791 820
e 792 793
e 792 821
e 793 794
e 793 822
e 794 795
e 794 823
e 795 796
e 795 824
e 796 797
e 796 825
e 797 798
e 797 826
e 798 799
e 798 827
e 799 800
e 799 828
e 800 801
e 800 829
e 801 802
e 801 830
e 802 803
e 802 831
e 803 804
e 803 832
e 804 805
e 804 833
e 805 806
e 805 834
e 806 807
e 806 835
e 807 808
e 807 836
e 808 809
e 808 837
e 809 810
e 809 838
e 810 811
e 810 839
e 811 812
e 811 840
e 812 841
e 813 814
e 814 815
e 815 816
e 816 817
e 817 818
e 818 819
e 819 820
e 820 821
e 821 822
e 822 823
e 823 824
e 824 825
e 825 826
e 826 827
e 827 828
e 828 829
e 829 830
e 830 831
e 831 832
e 832 833
e 833 834
e 834 835
e 835 836
e 836 837
e 837 838
e 838 839
e 839 840
e 840 841
